c ren 1 -> 1
c ren 2 -> 2
c ren 4 -> 3
c ren 6 -> 4
c ren 7 -> 5
c ren 12 -> 6
c ren 13 -> 7
c ren 18 -> 8
c ren 23 -> 9
c ren 24 -> 10
c ren 29 -> 11
c ren 30 -> 12
c ren 35 -> 13
c ren 39 -> 14
c ren 40 -> 15
c ren 42 -> 16
c ren 45 -> 17
c ren 47 -> 18
c ren 50 -> 19
c ren 52 -> 20
c ren 55 -> 21
c ren 57 -> 22
c ren 60 -> 23
c ren 62 -> 24
c ren 65 -> 25
c ren 67 -> 26
c ren 70 -> 27
c ren 72 -> 28
c ren 75 -> 29
c ren 77 -> 30
c ren 80 -> 31
c ren 82 -> 32
c ren 85 -> 33
c ren 87 -> 34
c ren 90 -> 35
c ren 92 -> 36
c ren 95 -> 37
c ren 97 -> 38
c ren 100 -> 39
c ren 102 -> 40
c ren 105 -> 41
c ren 107 -> 42
c ren 110 -> 43
c ren 112 -> 44
c ren 115 -> 45
c ren 117 -> 46
c ren 120 -> 47
c ren 122 -> 48
c ren 125 -> 49
c ren 127 -> 50
c ren 130 -> 51
c ren 132 -> 52
c ren 135 -> 53
c ren 137 -> 54
c ren 140 -> 55
c ren 145 -> 56
c ren 150 -> 57
c ren 154 -> 58
c ren 157 -> 59
c ren 158 -> 60
c ren 159 -> 61
c ren 162 -> 62
c ren 164 -> 63
c ren 167 -> 64
c ren 168 -> 65
c ren 170 -> 66
c ren 173 -> 67
c ren 175 -> 68
c ren 178 -> 69
c ren 180 -> 70
c ren 183 -> 71
c ren 185 -> 72
c ren 188 -> 73
c ren 190 -> 74
c ren 193 -> 75
c ren 194 -> 76
c ren 197 -> 77
c ren 199 -> 78
c ren 202 -> 79
c ren 203 -> 80
c ren 205 -> 81
c ren 208 -> 82
c ren 210 -> 83
c ren 213 -> 84
c ren 215 -> 85
c ren 218 -> 86
c ren 221 -> 87
c ren 224 -> 88
c ren 225 -> 89
c ren 228 -> 90
c ren 230 -> 91
c ren 233 -> 92
c ren 235 -> 93
c ren 238 -> 94
c ren 240 -> 95
c ren 243 -> 96
c ren 245 -> 97
c ren 248 -> 98
c ren 249 -> 99
c ren 252 -> 100
c ren 253 -> 101
c ren 256 -> 102
c ren 257 -> 103
c ren 260 -> 104
c ren 262 -> 105
c ren 265 -> 106
c ren 270 -> 107
c ren 275 -> 108
c ren 280 -> 109
c ren 284 -> 110
c ren 285 -> 111
c ren 286 -> 112
c ren 289 -> 113
c ren 290 -> 114
c ren 293 -> 115
c ren 296 -> 116
c ren 300 -> 117
c ren 303 -> 118
c ren 307 -> 119
c ren 308 -> 120
c ren 310 -> 121
c ren 311 -> 122
c ren 313 -> 123
c ren 315 -> 124
c ren 317 -> 125
c ren 318 -> 126
c ren 320 -> 127
c ren 324 -> 128
c ren 326 -> 129
c ren 327 -> 130
c ren 329 -> 131
c ren 331 -> 132
c ren 334 -> 133
c ren 337 -> 134
c ren 340 -> 135
c ren 344 -> 136
c ren 347 -> 137
c ren 353 -> 138
c ren 354 -> 139
c ren 357 -> 140
c ren 361 -> 141
c ren 364 -> 142
c ren 368 -> 143
c ren 369 -> 144
c ren 372 -> 145
c ren 376 -> 146
c ren 379 -> 147
c ren 382 -> 148
c ren 384 -> 149
c ren 386 -> 150
c ren 387 -> 151
c ren 389 -> 152
c ren 391 -> 153
c ren 394 -> 154
c ren 399 -> 155
c ren 400 -> 156
c ren 402 -> 157
c ren 403 -> 158
c ren 406 -> 159
c ren 407 -> 160
c ren 414 -> 161
c ren 425 -> 162
c ren 430 -> 163
c ren 432 -> 164
c ren 434 -> 165
c ren 439 -> 166
c ren 441 -> 167
c ren 444 -> 168
c ren 445 -> 169
c ren 462 -> 170
c ren 463 -> 171
c ren 464 -> 172
c ren 466 -> 173
c ren 467 -> 174
c ren 470 -> 175
c ren 471 -> 176
c ren 473 -> 177
c ren 474 -> 178
c ren 476 -> 179
c ren 480 -> 180
c ren 481 -> 181
c ren 483 -> 182
c ren 484 -> 183
c ren 490 -> 184
p cnf 184 723
a 1 2 4 5 6 7 8 9 10 11 12 13 15 17 19 21 23 25 27 29 31 33 35 37 39 41 43 45 47 49 51 53 55 56 57 58 60 62 64 67 69 71 73 75 77 79 82 84 86 88 90 92 94 96 98 100 102 104 106 107 108 109 111 113 115 116 117 118 120 122 124 126 128 130 132 134 135 136 137 139 140 141 142 144 145 146 149 151 153 154 155 157 160 169 178 184 0
d 65 10 12 0
d 80 10 12 0
d 133 2 98 100 169 0
d 147 2 178 0
d 159 2 7 111 113 184 0
e 3 14 16 18 20 22 24 26 28 30 32 34 36 38 40 42 44 46 48 50 52 54 59 61 63 66 68 70 72 74 76 78 81 83 85 87 89 91 93 95 97 99 101 103 105 110 112 114 119 121 123 125 127 129 131 138 143 148 150 152 156 158 161 162 163 164 165 166 167 168 170 171 172 173 174 175 176 177 179 180 181 182 183 0
-1 2 3 0
1 -2 3 0
-1 -2 -3 0
1 2 -3 0
-4 -5 14 0
-3 4 -5 6 -7 8 9 -10 -11 12 13 -14 0
-3 4 -5 6 -7 8 -9 10 11 -12 13 -14 0
-3 -4 5 -6 7 -8 -9 10 -11 12 -13 -14 0
-3 4 -5 6 -7 8 9 -10 11 -12 13 -14 0
-3 -4 5 -6 7 -8 -9 10 11 -12 13 -14 0
6 7 14 0
-3 -4 5 -6 7 -8 9 -10 -11 12 13 -14 0
-3 -4 5 -6 7 -8 9 -10 11 -12 13 -14 0
-3 4 -5 -6 7 8 -9 10 11 -12 13 -14 0
-3 -4 5 6 -7 8 -9 10 -11 12 -13 -14 0
-3 4 -5 -6 7 8 9 -10 -11 12 13 -14 0
-3 -4 5 6 -7 8 9 -10 11 -12 13 -14 0
-3 -4 5 6 -7 8 -9 10 11 -12 13 -14 0
-6 -7 14 0
-4 -6 8 14 0
-3 -4 5 6 -7 8 9 -10 -11 12 13 -14 0
-3 4 -5 -6 7 8 9 -10 11 -12 13 -14 0
4 5 14 0
9 10 14 0
-9 -10 14 0
-3 4 -5 6 -7 8 -9 10 -11 12 -13 -14 0
6 -8 14 0
4 -8 14 0
11 12 14 0
3 14 0
9 -13 14 0
-11 -12 14 0
11 -13 14 0
-9 -11 13 14 0
-3 4 -5 -6 7 8 -9 10 -11 12 -13 -14 0
8 -15 -16 0
-8 -13 -15 16 0
-8 -13 15 -16 0
13 15 16 0
13 -15 -16 0
8 15 16 0
16 59 0
-2 5 14 -16 -18 -20 -22 -24 -26 -28 -30 -32 -34 -36 -38 -40 -42 -44 -46 -48 49 -50 -52 -54 55 56 57 -58 -59 0
5 -17 -18 0
-5 -6 -17 18 0
-5 -6 17 -18 0
6 17 18 0
6 -17 -18 0
5 17 18 0
18 59 0
13 -19 -20 0
-13 -17 -19 20 0
-13 -17 19 -20 0
17 19 20 0
17 -19 -20 0
13 19 20 0
20 59 0
2 -5 14 -16 -18 -20 -22 -24 -26 -28 -30 -32 -34 -36 -38 -40 -42 -44 -46 -48 49 -50 -52 -54 55 56 -57 58 -59 0
4 -21 -22 0
-4 -7 -21 22 0
-4 -7 21 -22 0
7 21 22 0
7 -21 -22 0
4 21 22 0
22 59 0
13 -23 -24 0
-13 -21 -23 24 0
-13 -21 23 -24 0
21 23 24 0
21 -23 -24 0
13 23 24 0
24 59 0
2 14 -16 -18 -20 -21 -22 -24 -26 -28 -30 -32 -34 -36 -38 -40 -42 -44 -46 -48 -49 -50 -52 -54 -55 56 -57 -58 -59 0
5 -25 -26 0
-5 -7 -25 26 0
-5 -7 25 -26 0
7 75 76 0
7 -75 -76 0
-5 -7 -75 76 0
26 59 0
7 25 26 0
13 -27 -28 0
-13 -25 -27 28 0
-13 -25 27 -28 0
25 27 28 0
25 -27 -28 0
13 27 28 0
28 59 0
-2 14 -16 -18 -20 -21 -22 -24 -26 -28 -30 -32 -34 -36 -38 -40 -42 -44 -46 -48 -49 -50 -52 -54 -55 56 57 -58 -59 0
10 -29 -30 0
-10 -11 -29 30 0
-10 -11 29 -30 0
11 29 30 0
11 -29 -30 0
10 29 30 0
30 59 0
5 -75 -76 0
8 -31 -32 0
-8 -29 -31 32 0
-8 -29 31 -32 0
29 31 32 0
29 -31 -32 0
8 31 32 0
32 59 0
2 5 14 -16 -18 -20 -22 -24 -26 -28 -30 -32 -34 -36 -38 -40 -42 -44 -46 -48 49 -50 -52 -54 55 56 -57 -58 -59 0
17 -33 -34 0
-17 -29 -33 34 0
-17 -29 33 -34 0
29 33 34 0
29 -33 -34 0
17 33 34 0
34 59 0
2 14 -16 -18 -20 21 -22 -24 -25 -26 -28 -30 -32 -34 -36 -38 -40 -42 -44 -46 -48 -49 -50 -52 -54 55 -56 -57 58 -59 0
21 -35 -36 0
-21 -29 -35 36 0
-21 -29 35 -36 0
29 35 36 0
29 -35 -36 0
21 35 36 0
36 59 0
-2 -5 14 -16 -18 -20 -22 -24 -26 -28 -30 -32 -34 -36 -38 -40 -42 -44 -46 -48 49 -50 -52 -54 55 56 57 58 -59 0
25 -37 -38 0
-25 -29 -37 38 0
-25 -29 37 -38 0
29 37 38 0
29 -37 -38 0
25 37 38 0
38 59 0
-2 14 -16 -18 -20 -22 -24 -25 -26 -28 -30 -32 -34 -36 -38 -40 -42 -44 -46 -48 -49 -50 -52 -54 55 -56 57 58 -59 0
9 -39 -40 0
-9 -12 -39 40 0
-9 -12 39 -40 0
12 39 40 0
12 -39 -40 0
9 39 40 0
40 59 0
2 5 14 -16 -18 -20 21 -22 -24 -26 -28 -30 -32 -34 -36 -38 -40 -42 -44 -46 -48 -50 -52 -54 55 56 -57 -58 -59 0
8 -41 -42 0
-8 -39 -41 42 0
-8 -39 41 -42 0
39 41 42 0
39 -41 -42 0
8 41 42 0
42 59 0
5 75 76 0
17 -43 -44 0
-17 -39 -43 44 0
-17 -39 43 -44 0
39 43 44 0
39 -43 -44 0
17 43 44 0
44 59 0
-2 5 14 -16 -18 -20 21 -22 -24 -26 -28 -30 -32 -34 -36 -38 -40 -42 -44 -46 -48 -50 -52 -54 55 56 57 -58 -59 0
21 -45 -46 0
-21 -39 -45 46 0
-21 -39 45 -46 0
39 45 46 0
39 -45 -46 0
21 45 46 0
46 59 0
7 -25 -26 0
25 -47 -48 0
-25 -39 -47 48 0
-25 -39 47 -48 0
39 47 48 0
39 -47 -48 0
25 47 48 0
48 59 0
-14 59 0
10 -49 -50 0
-10 -12 -49 50 0
12 102 103 0
-10 -12 49 -50 0
10 102 103 0
10 -102 -103 0
-10 -12 -102 103 0
50 59 0
8 -51 -52 0
-8 -49 -51 52 0
-8 -49 51 -52 0
49 51 52 0
49 -51 -52 0
8 51 52 0
52 59 0
17 -53 -54 0
-17 -49 -53 54 0
-17 -49 53 -54 0
49 53 54 0
49 -53 -54 0
17 53 54 0
54 59 0
2 -5 14 -16 -18 -20 21 -24 25 -26 -28 -30 -32 -34 -36 -38 -40 -42 -44 -46 -48 -50 -52 -54 55 56 -57 58 -59 0
-2 -5 14 -16 -18 -20 21 -24 25 -26 -28 -30 -32 -34 -36 -38 -40 -42 -44 -46 -48 -50 -52 -54 55 56 57 58 -59 0
21 -55 59 0
-25 -49 56 59 0
-21 -49 55 59 0
49 -56 59 0
-2 -57 59 0
2 57 59 0
25 -56 59 0
12 -102 -103 0
49 -55 59 0
5 58 59 0
-5 -58 59 0
7 -60 61 0
-7 60 61 0
-7 -60 -61 0
7 60 -61 0
61 110 0
58 -62 -63 0
-58 -60 -62 63 0
-58 -60 62 -63 0
60 62 63 0
60 -62 -63 0
58 62 63 0
63 110 0
62 -64 -66 0
-62 -64 -65 66 0
-62 64 -65 -66 0
64 65 66 0
-64 65 -66 0
62 64 66 0
66 110 0
5 -67 -68 0
-5 -60 -67 68 0
-5 -60 67 -68 0
60 67 68 0
60 -67 -68 0
5 67 68 0
68 110 0
65 -69 -70 0
-65 -67 -69 70 0
-65 -67 69 -70 0
67 69 70 0
67 -69 -70 0
65 69 70 0
70 110 0
7 -71 -72 0
-7 -58 -71 72 0
-7 -58 71 -72 0
58 71 72 0
58 -71 -72 0
7 71 72 0
72 110 0
59 -61 -63 -66 -67 -68 -70 71 -74 75 -78 -81 -83 -85 -87 -89 -91 -93 -95 -97 -99 -101 -102 -103 -105 -106 107 108 109 -110 0
65 -73 -74 0
-65 -71 -73 74 0
-65 -71 73 -74 0
71 73 74 0
71 -73 -74 0
65 73 74 0
74 110 0
-5 -7 75 -76 0
5 25 26 0
76 110 0
65 -77 -78 0
-65 -75 -77 78 0
-65 -75 77 -78 0
75 77 78 0
75 -77 -78 0
65 77 78 0
78 110 0
59 -61 -63 -66 -68 -70 -71 -72 -74 -76 -78 -81 -83 -85 -87 -89 -91 -93 -95 -97 -99 -101 -102 -103 -105 106 -107 108 109 -110 0
62 -79 -81 0
-62 -79 -80 81 0
-62 79 -80 -81 0
79 80 81 0
-79 80 -81 0
62 79 81 0
81 110 0
67 -82 -83 0
-67 -80 -82 83 0
-67 -80 82 -83 0
80 82 83 0
80 -82 -83 0
67 82 83 0
83 110 0
59 -61 -63 -66 -68 -70 71 -74 -75 -76 -78 -81 -83 -85 -87 90 -91 -93 -95 -97 -99 -101 -102 -103 -105 106 107 -108 109 -110 0
71 -84 -85 0
-71 -80 -84 85 0
-71 -80 84 -85 0
80 84 85 0
80 -84 -85 0
71 84 85 0
85 110 0
59 -61 -63 -66 67 -68 -70 71 -72 -74 75 -76 -78 -81 -83 -85 -87 -89 -91 -93 -95 -97 -99 -101 -103 -105 106 107 108 109 -110 0
-75 86 87 0
75 80 -86 87 0
75 80 86 -87 0
-80 86 87 0
-80 -86 -87 0
-75 -86 -87 0
87 110 0
59 -61 -63 -66 -68 -70 -72 -74 -75 -76 -78 -81 -83 -85 -87 -89 -90 -91 -93 -95 -97 -99 -101 -103 -105 106 107 108 -109 -110 0
10 -88 89 0
-10 88 89 0
-10 -88 -89 0
10 88 -89 0
89 110 0
59 -61 -63 -66 -68 -70 -72 -74 -76 -78 -81 -83 -85 -87 -89 90 -91 -93 -95 -97 -99 -101 102 -103 -105 106 107 108 109 -110 0
12 -90 -91 0
-12 -88 -90 91 0
-12 -88 90 -91 0
88 90 91 0
88 -90 -91 0
12 90 91 0
91 110 0
59 -61 -63 -66 -68 -70 -72 -74 75 -76 -78 -81 -83 -85 -87 -89 -91 -93 -95 -97 -99 -101 102 -103 -105 106 107 108 109 -110 0
62 -92 -93 0
-62 -90 -92 93 0
-62 -90 92 -93 0
90 92 93 0
90 -92 -93 0
62 92 93 0
93 110 0
-59 110 0
67 -94 -95 0
-67 -90 -94 95 0
-67 -90 94 -95 0
90 94 95 0
90 -94 -95 0
67 94 95 0
95 110 0
71 -96 -97 0
-71 -90 -96 97 0
-71 -90 96 -97 0
90 96 97 0
90 -96 -97 0
71 96 97 0
97 110 0
-75 -98 99 0
75 98 99 0
75 -98 -99 0
-75 98 -99 0
99 110 0
-90 -100 101 0
90 100 101 0
90 -100 -101 0
-90 100 -101 0
101 110 0
-10 -12 102 -103 0
12 49 50 0
12 -49 -50 0
10 49 50 0
103 110 0
62 -104 -105 0
-62 -102 -104 105 0
-62 -102 104 -105 0
102 104 105 0
102 -104 -105 0
62 104 105 0
105 110 0
-102 -111 112 0
102 111 112 0
-58 -113 114 0
58 113 114 0
57 -119 0
-57 -64 -115 119 0
69 73 115 118 -119 0
69 73 77 115 -119 0
73 77 115 116 -119 0
64 69 77 117 -119 0
-57 -69 -116 119 0
64 116 117 118 -119 0
64 77 116 117 -119 0
73 115 116 118 -119 0
64 69 73 118 -119 0
64 69 117 118 -119 0
115 116 117 118 -119 0
64 73 116 118 -119 0
-57 -73 -117 119 0
64 69 73 77 -119 0
69 115 117 118 -119 0
-57 -77 -118 119 0
69 77 115 117 -119 0
77 115 116 117 -119 0
64 73 77 116 -119 0
120 -121 0
-57 -79 -120 121 0
79 -121 0
57 -121 0
122 -123 0
-57 -82 -122 123 0
82 -123 0
57 -123 0
-123 138 0
96 104 106 107 108 119 121 123 125 127 129 131 133 -138 0
124 -125 0
-57 -84 -124 125 0
84 -125 0
57 -125 0
126 -127 0
-57 -86 -126 127 0
86 -127 0
57 -127 0
-127 138 0
96 107 119 121 123 125 127 129 131 133 134 135 137 -138 0
96 104 106 107 119 121 123 125 127 129 131 133 137 -138 0
96 104 106 108 119 121 123 125 127 129 131 133 136 -138 0
128 -129 0
-57 -92 -128 129 0
92 -129 0
57 -129 0
130 -131 0
-57 -94 -130 131 0
94 -131 0
57 -131 0
-131 138 0
96 104 106 119 121 123 125 127 129 131 133 136 137 -138 0
96 107 108 119 121 123 125 127 129 131 133 134 135 -138 0
-57 -96 -132 138 0
-119 138 0
104 119 121 123 125 127 129 131 132 133 135 136 137 -138 0
-133 138 0
96 104 107 119 121 123 125 127 129 131 133 135 137 -138 0
104 107 119 121 123 125 127 129 131 132 133 135 137 -138 0
104 107 108 119 121 123 125 127 129 131 132 133 135 -138 0
96 104 108 119 121 123 125 127 129 131 133 135 136 -138 0
106 107 108 119 121 123 125 127 129 131 132 133 134 -138 0
96 108 119 121 123 125 127 129 131 133 134 135 136 -138 0
-57 -104 -134 138 0
106 108 119 121 123 125 127 129 131 132 133 134 136 -138 0
96 106 119 121 123 125 127 129 131 133 134 136 137 -138 0
96 106 107 108 119 121 123 125 127 129 131 133 134 -138 0
-57 -106 -135 138 0
104 106 119 121 123 125 127 129 131 132 133 136 137 -138 0
104 106 107 119 121 123 125 127 129 131 132 133 137 -138 0
96 104 107 108 119 121 123 125 127 129 131 133 135 -138 0
57 133 -138 0
96 106 107 119 121 123 125 127 129 131 133 134 137 -138 0
104 106 108 119 121 123 125 127 129 131 132 133 136 -138 0
-57 -107 -136 138 0
106 119 121 123 125 127 129 131 132 133 134 136 137 -138 0
96 119 121 123 125 127 129 131 133 134 135 136 137 -138 0
106 107 119 121 123 125 127 129 131 132 133 134 137 -138 0
-57 -108 -137 138 0
107 119 121 123 125 127 129 131 132 133 134 135 137 -138 0
107 108 119 121 123 125 127 129 131 132 133 134 135 -138 0
96 104 119 121 123 125 127 129 131 133 135 136 137 -138 0
119 121 123 125 127 129 131 132 133 134 135 136 137 -138 0
104 106 107 108 119 121 123 125 127 129 131 132 133 -138 0
108 119 121 123 125 127 129 131 132 133 134 135 136 -138 0
-125 138 0
-121 138 0
-129 138 0
96 106 108 119 121 123 125 127 129 131 133 134 136 -138 0
104 108 119 121 123 125 127 129 131 132 133 135 136 -138 0
139 -171 0
-2 -15 -139 171 0
69 77 139 141 -143 0
2 -171 0
77 139 140 141 -143 0
64 73 77 140 -143 0
-2 -19 -140 172 0
64 73 140 142 -143 0
2 -172 0
73 77 139 140 -143 0
64 69 73 142 -143 0
64 69 77 141 -143 0
139 140 141 142 -143 0
69 139 141 142 -143 0
-2 -23 -141 173 0
141 -173 0
2 -173 0
64 69 73 77 -143 0
64 77 140 141 -143 0
-2 -27 -142 174 0
64 140 141 142 -143 0
2 -174 0
140 -172 0
73 139 140 142 -143 0
69 73 77 139 -143 0
2 147 -148 0
-2 -31 -144 175 0
79 82 84 147 -148 0
2 -175 0
82 86 144 146 -148 0
79 82 146 147 -148 0
-2 -33 -145 176 0
82 144 146 147 -148 0
2 -176 0
79 86 145 146 -148 0
82 84 86 144 -148 0
2 86 -148 0
79 84 86 145 -148 0
-2 -35 -146 177 0
79 82 84 86 -148 0
82 84 144 147 -148 0
2 -177 0
144 -175 0
-86 -147 148 0
84 144 145 147 -148 0
146 -177 0
84 86 144 145 -148 0
86 144 145 146 -148 0
79 145 146 147 -148 0
145 -176 0
-148 161 0
96 104 106 108 109 138 143 148 150 152 159 -161 0
2 -180 0
-2 -92 -149 150 0
149 -150 0
92 -150 0
-2 -41 -149 180 0
2 -181 0
-2 -94 -151 152 0
151 -152 0
94 -152 0
-2 -43 -151 181 0
-152 161 0
96 106 108 138 143 148 150 152 154 156 159 -161 0
-2 -45 -153 182 0
96 106 108 109 138 143 148 150 152 156 159 -161 0
2 -182 0
154 -183 0
-2 -47 -154 183 0
104 108 109 138 143 148 150 152 153 158 159 -161 0
96 106 109 138 143 148 150 152 156 159 160 -161 0
2 -183 0
96 108 109 138 143 148 150 152 156 158 159 -161 0
96 106 138 143 148 150 152 154 156 159 160 -161 0
2 -156 0
155 -156 0
-2 -155 156 0
96 104 106 108 138 143 148 150 152 154 159 -161 0
-104 -156 161 0
96 104 138 143 148 150 152 154 158 159 160 -161 0
2 -158 0
157 -158 0
-2 -157 158 0
96 104 106 138 143 148 150 152 154 159 160 -161 0
-106 -158 161 0
96 108 138 143 148 150 152 154 156 158 159 -161 0
2 138 148 159 -161 0
96 104 106 109 138 143 148 150 152 159 160 -161 0
-2 -56 110 -112 -114 -160 161 0
55 110 -112 -114 156 158 160 -161 170 171 172 173 174 175 176 177 179 180 181 182 183 0
110 -112 -114 156 158 160 -161 170 171 172 173 174 175 176 177 179 180 181 182 183 184 0
96 138 143 148 150 152 154 156 158 159 160 -161 0
96 109 138 143 148 150 152 156 158 159 160 -161 0
96 104 108 138 143 148 150 152 154 158 159 -161 0
153 -182 0
-159 161 0
104 106 108 109 138 143 148 150 152 153 159 -161 0
104 106 109 138 143 148 150 152 153 159 160 -161 0
106 108 109 138 143 148 150 152 153 156 159 -161 0
-138 161 0
104 109 138 143 148 150 152 153 158 159 160 -161 0
144 145 146 147 -148 0
1 -162 0
-1 -15 -115 162 0
104 108 138 143 148 150 152 153 154 158 159 -161 0
23 27 115 116 -162 0
19 23 27 115 -162 0
115 116 117 118 -162 0
15 19 117 118 -162 0
-1 -19 -116 162 0
15 27 116 117 -162 0
15 23 27 116 -162 0
27 115 116 117 -162 0
15 19 23 118 -162 0
15 19 27 117 -162 0
106 109 138 143 148 150 152 153 156 159 160 -161 0
19 115 117 118 -162 0
-1 -23 -117 162 0
109 138 143 148 150 152 153 156 158 159 160 -161 0
15 116 117 118 -162 0
19 27 115 117 -162 0
108 109 138 143 148 150 152 153 156 158 159 -161 0
15 19 23 27 -162 0
-1 -27 -118 162 0
104 106 138 143 148 150 152 153 154 159 160 -161 0
104 106 108 138 143 148 150 152 153 154 159 -161 0
23 115 116 118 -162 0
106 108 138 143 148 150 152 153 154 156 159 -161 0
15 23 116 118 -162 0
104 138 143 148 150 152 153 154 158 159 160 -161 0
108 138 143 148 150 152 153 154 156 158 159 -161 0
106 138 143 148 150 152 153 154 156 159 160 -161 0
19 23 115 118 -162 0
1 -163 0
-1 -31 -120 163 0
120 122 -163 0
33 120 -163 0
-150 161 0
-143 161 0
-1 -33 -122 163 0
138 143 148 150 152 153 154 156 158 159 160 -161 0
31 33 -163 0
31 122 -163 0
124 -164 0
-1 -35 -124 164 0
35 -164 0
1 -164 0
126 -165 0
-1 -37 -126 165 0
37 -165 0
1 -165 0
-165 170 0
47 51 53 55 56 162 163 164 165 166 167 168 -170 0
47 53 56 134 136 162 163 164 165 166 167 168 -170 0
47 51 53 55 137 162 163 164 165 166 167 168 -170 0
128 -166 0
-1 -41 -128 166 0
41 -166 0
1 -166 0
130 -167 0
-1 -43 -130 167 0
43 -167 0
1 -167 0
-167 170 0
47 51 53 136 137 162 163 164 165 166 167 168 -170 0
132 -168 0
-1 -45 -132 168 0
45 -168 0
1 -168 0
-1 -47 -169 170 0
51 55 135 137 162 163 164 165 166 167 168 169 -170 0
47 51 53 56 136 162 163 164 165 166 167 168 -170 0
47 51 135 136 137 162 163 164 165 166 167 168 -170 0
51 55 56 135 162 163 164 165 166 167 168 169 -170 0
51 135 136 137 162 163 164 165 166 167 168 169 -170 0
47 51 55 56 135 162 163 164 165 166 167 168 -170 0
53 55 56 134 162 163 164 165 166 167 168 169 -170 0
47 134 135 136 137 162 163 164 165 166 167 168 -170 0
-1 -51 -134 170 0
53 56 134 136 162 163 164 165 166 167 168 169 -170 0
1 -170 0
47 55 134 135 137 162 163 164 165 166 167 168 -170 0
-1 -53 -135 170 0
-168 170 0
47 53 55 134 137 162 163 164 165 166 167 168 -170 0
47 56 134 135 136 162 163 164 165 166 167 168 -170 0
47 55 56 134 135 162 163 164 165 166 167 168 -170 0
51 53 56 136 162 163 164 165 166 167 168 169 -170 0
-1 -55 -136 170 0
47 51 55 135 137 162 163 164 165 166 167 168 -170 0
51 53 136 137 162 163 164 165 166 167 168 169 -170 0
47 51 56 135 136 162 163 164 165 166 167 168 -170 0
-1 -56 -137 170 0
53 134 136 137 162 163 164 165 166 167 168 169 -170 0
53 55 134 137 162 163 164 165 166 167 168 169 -170 0
47 53 134 136 137 162 163 164 165 166 167 168 -170 0
55 134 135 137 162 163 164 165 166 167 168 169 -170 0
51 53 55 56 162 163 164 165 166 167 168 169 -170 0
55 56 134 135 162 163 164 165 166 167 168 169 -170 0
134 135 136 137 162 163 164 165 166 167 168 169 -170 0
56 134 135 136 162 163 164 165 166 167 168 169 -170 0
51 53 55 137 162 163 164 165 166 167 168 169 -170 0
-163 170 0
-164 170 0
47 53 55 56 134 162 163 164 165 166 167 168 -170 0
-166 170 0
-162 170 0
51 56 135 136 162 163 164 165 166 167 168 169 -170 0
2 -143 0
15 -171 0
-2 -64 -139 143 0
64 69 141 142 -143 0
19 -172 0
-2 -69 -140 143 0
110 -112 -114 161 -172 0
51 53 55 56 110 -112 -114 -161 170 171 172 173 174 175 176 177 179 180 181 182 183 0
69 73 139 142 -143 0
23 -173 0
-2 -73 -141 143 0
142 -174 0
27 -174 0
-2 -77 -142 143 0
110 -112 -114 161 -174 0
31 -175 0
-2 -79 -144 148 0
79 84 145 147 -148 0
33 -176 0
-2 -82 -145 148 0
110 -112 -114 161 -176 0
79 82 86 146 -148 0
35 -177 0
-2 -84 -146 148 0
178 -179 0
-2 -37 -178 179 0
37 -179 0
2 -179 0
110 -112 -114 161 -179 0
51 53 56 110 -112 -114 -161 170 171 172 173 174 175 176 177 179 180 181 182 183 184 0
2 110 -112 -114 -161 170 0
51 55 56 110 -112 -114 158 -161 170 171 172 173 174 175 176 177 179 180 181 182 183 0
149 -180 0
41 -180 0
2 -150 0
151 -181 0
43 -181 0
2 -152 0
110 161 -181 0
96 104 108 109 138 143 148 150 152 158 159 -161 0
45 -182 0
-2 -96 -153 161 0
96 104 109 138 143 148 150 152 158 159 160 -161 0
47 -183 0
-2 -109 -154 161 0
110 -112 -114 161 -183 0
51 53 110 -112 -114 160 -161 170 171 172 173 174 175 176 177 179 180 181 182 183 184 0
51 55 110 -112 -114 158 160 -161 170 171 172 173 174 175 176 177 179 180 181 182 183 0
-51 110 -156 161 0
110 -112 -114 161 -171 0
-53 110 -112 -114 -158 161 0
51 53 55 110 -112 -114 160 -161 170 171 172 173 174 175 176 177 179 180 181 182 183 0
53 55 56 110 -112 -114 156 -161 170 171 172 173 174 175 176 177 179 180 181 182 183 0
56 110 -112 -114 156 158 -161 170 171 172 173 174 175 176 177 179 180 181 182 183 184 0
55 56 110 -112 -114 156 158 -161 170 171 172 173 174 175 176 177 179 180 181 182 183 0
-2 -55 110 -112 -114 161 -184 0
53 56 110 -112 -114 156 -161 170 171 172 173 174 175 176 177 179 180 181 182 183 184 0
53 55 110 -112 -114 156 160 -161 170 171 172 173 174 175 176 177 179 180 181 182 183 0
110 -112 -114 161 -173 0
51 56 110 -112 -114 158 -161 170 171 172 173 174 175 176 177 179 180 181 182 183 184 0
-2 -108 -160 161 0
110 -112 -114 161 -175 0
110 -112 -114 161 -177 0
51 110 -112 -114 158 160 -161 170 171 172 173 174 175 176 177 179 180 181 182 183 184 0
110 161 -180 0
53 110 -112 -114 156 160 -161 170 171 172 173 174 175 176 177 179 180 181 182 183 184 0
110 161 -182 0
110 -112 -114 161 -170 0
